246 5
10 10 10 10 10 

0 0 0 0 0 0 4 2 14 26 38 
0 0 0 0 0 0 5 3 4 5 6 8 
5 1 0 0 0 0 4 12 11 10 7 
2 6 0 0 0 0 3 10 7 157 
8 10 0 0 0 0 2 10 7 
7 5 0 0 0 0 2 10 7 
7 3 0 0 0 0 1 9 
5 4 0 0 0 0 1 11 
8 6 0 0 0 0 1 13 
7 4 0 0 0 0 1 13 
9 3 0 0 0 0 1 13 
10 8 0 0 0 0 1 13 
0 0 0 0 0 0 1 50 
0 0 0 0 0 0 4 15 16 17 18 
7 0 0 0 0 1 4 24 22 20 19 
5 0 0 0 0 4 2 20 19 
2 0 0 0 0 6 2 23 20 
3 0 0 0 0 10 2 22 20 
9 0 0 0 0 6 1 21 
10 0 0 0 0 2 1 25 
10 0 0 0 0 4 2 25 151 
3 0 0 0 0 5 1 25 
4 0 0 0 0 7 1 25 
6 0 0 0 0 5 1 25 
0 0 0 0 0 0 1 50 
0 0 0 0 0 0 5 27 28 29 30 36 
7 0 0 1 0 0 5 35 34 33 32 105 
2 0 0 10 0 0 3 33 32 31 
10 0 0 4 0 0 3 34 33 32 
8 0 0 7 0 0 2 33 32 
4 0 0 8 0 0 1 34 
2 0 0 2 0 0 1 37 
2 0 0 5 0 0 1 37 
6 0 0 3 0 0 1 37 
1 0 0 7 0 0 1 37 
6 0 0 3 0 0 1 37 
0 0 0 0 0 0 1 50 
0 0 0 0 0 0 5 39 40 41 42 43 
10 1 0 0 0 0 4 48 46 45 44 
3 3 0 0 0 0 2 48 44 
3 7 0 0 0 0 2 45 44 
5 3 0 0 0 0 1 45 
8 4 0 0 0 0 2 44 238 
10 7 0 0 0 0 1 47 
6 6 0 0 0 0 1 47 
2 8 0 0 0 0 1 47 
8 4 0 0 0 0 1 49 
6 7 0 0 0 0 1 49 
0 0 0 0 0 0 1 50 
0 0 0 0 0 0 4 51 63 75 87 
0 0 0 0 0 0 5 52 53 54 55 56 
9 0 0 0 0 1 4 61 60 59 57 
7 0 0 0 0 5 4 61 60 59 57 
2 0 0 0 0 5 3 61 59 57 
1 0 0 0 0 7 3 60 59 58 
6 0 0 0 0 6 2 59 57 
10 0 0 0 0 6 1 58 
1 0 0 0 0 4 1 62 
10 0 0 0 0 6 1 62 
10 0 0 0 0 5 1 62 
7 0 0 0 0 5 1 62 
0 0 0 0 0 0 1 99 
0 0 0 0 0 0 3 64 65 67 
6 0 0 1 0 0 5 73 72 71 70 66 
8 0 0 5 0 0 3 70 69 68 
1 0 0 5 0 0 1 68 
7 0 0 5 0 0 1 69 
5 0 0 7 0 0 1 74 
1 0 0 5 0 0 1 74 
1 0 0 6 0 0 1 74 
7 0 0 2 0 0 1 74 
7 0 0 5 0 0 1 74 
9 0 0 9 0 0 1 74 
0 0 0 0 0 0 1 99 
0 0 0 0 0 0 5 76 77 78 82 83 
6 0 1 0 0 0 2 81 79 
9 0 5 0 0 0 2 84 80 
5 0 4 0 0 0 2 84 80 
5 0 6 0 0 0 2 85 84 
9 0 4 0 0 0 1 85 
10 0 5 0 0 0 1 85 
2 0 5 0 0 0 1 84 
4 0 7 0 0 0 1 84 
9 0 7 0 0 0 1 86 
9 0 6 0 0 0 1 86 
0 0 0 0 0 0 1 99 
0 0 0 0 0 0 3 88 89 90 
4 1 0 0 0 0 6 97 96 95 94 93 91 
10 6 0 0 0 0 4 97 96 93 92 
6 4 0 0 0 0 4 95 94 93 92 
1 6 0 0 0 0 1 92 
5 8 0 0 0 0 1 98 
4 5 0 0 0 0 1 98 
5 8 0 0 0 0 1 98 
6 4 0 0 0 0 1 98 
4 4 0 0 0 0 1 98 
6 4 0 0 0 0 1 98 
0 0 0 0 0 0 1 99 
0 0 0 0 0 0 4 100 112 124 136 
0 0 0 0 0 0 6 101 102 104 108 109 110 
4 0 1 0 0 0 2 106 103 
1 0 8 0 0 0 2 106 105 
2 0 4 0 0 0 1 107 
10 0 5 0 0 0 1 105 
6 0 5 0 0 0 1 111 
4 0 6 0 0 0 1 111 
8 0 9 0 0 0 1 111 
8 0 6 0 0 0 1 111 
10 0 3 0 0 0 1 111 
5 0 3 0 0 0 1 111 
0 0 0 0 0 0 1 148 
0 0 0 0 0 0 7 113 115 116 119 120 121 122 
9 0 0 0 0 1 1 114 
3 0 0 0 0 4 2 118 117 
1 0 0 0 0 7 1 117 
3 0 0 0 0 7 1 117 
1 0 0 0 0 6 1 123 
9 0 0 0 0 7 1 123 
2 0 0 0 0 4 1 123 
9 0 0 0 0 2 1 123 
4 0 0 0 0 6 1 123 
4 0 0 0 0 6 1 123 
0 0 0 0 0 0 1 148 
0 0 0 0 0 0 3 125 126 129 
4 0 1 0 0 0 4 134 132 128 127 
8 0 5 0 0 0 3 132 131 130 
4 0 5 0 0 0 1 131 
7 0 6 0 0 0 1 130 
6 0 6 0 0 0 1 133 
9 0 5 0 0 0 1 135 
10 0 4 0 0 0 1 135 
1 0 6 0 0 0 1 135 
10 0 6 0 0 0 1 135 
3 0 6 0 0 0 1 135 
0 0 0 0 0 0 1 148 
0 0 0 0 0 0 7 137 139 140 143 144 145 146 
5 0 1 0 0 0 1 138 
8 0 5 0 0 0 1 142 
9 0 6 0 0 0 1 141 
6 0 4 0 0 0 1 141 
2 0 8 0 0 0 1 147 
10 0 7 0 0 0 1 147 
10 0 4 0 0 0 1 147 
8 0 6 0 0 0 1 147 
6 0 4 0 0 0 1 147 
4 0 5 0 0 0 1 147 
0 0 0 0 0 0 1 148 
0 0 0 0 0 0 4 149 161 173 185 
0 0 0 0 0 0 4 150 151 152 155 
5 1 0 0 0 0 4 159 158 154 153 
9 5 0 0 0 0 3 158 154 153 
1 5 0 0 0 0 2 157 154 
8 6 0 0 0 0 2 157 156 
10 8 0 0 0 0 1 156 
1 5 0 0 0 0 1 156 
10 3 0 0 0 0 1 160 
6 5 0 0 0 0 1 160 
6 7 0 0 0 0 1 160 
5 5 0 0 0 0 1 160 
0 0 0 0 0 0 1 197 
0 0 0 0 0 0 5 162 163 164 165 166 
4 0 1 0 0 0 3 171 168 167 
8 0 5 0 0 0 3 171 168 167 
10 0 10 0 0 0 3 171 168 167 
1 0 5 0 0 0 3 171 168 167 
5 0 5 0 0 0 2 171 167 
5 0 5 0 0 0 2 170 169 
7 0 4 0 0 0 1 169 
10 0 4 0 0 0 1 172 
2 0 7 0 0 0 1 172 
4 0 4 0 0 0 1 172 
0 0 0 0 0 0 1 197 
0 0 0 0 0 0 3 174 175 177 
5 0 0 1 0 0 4 183 180 178 176 
5 0 0 8 0 0 3 181 180 179 
4 0 0 5 0 0 2 181 179 
10 0 0 3 0 0 2 182 180 
7 0 0 6 0 0 1 179 
7 0 0 7 0 0 1 184 
1 0 0 2 0 0 1 184 
7 0 0 7 0 0 1 184 
5 0 0 7 0 0 1 184 
2 0 0 4 0 0 1 184 
0 0 0 0 0 0 1 197 
0 0 0 0 0 0 3 186 187 190 
7 0 0 0 0 1 4 195 193 189 188 
10 0 0 0 0 5 3 193 192 191 
6 0 0 0 0 6 2 192 191 
5 0 0 0 0 6 1 191 
9 0 0 0 0 5 1 194 
3 0 0 0 0 4 1 196 
7 0 0 0 0 6 1 196 
8 0 0 0 0 6 1 196 
6 0 0 0 0 6 1 196 
7 0 0 0 0 5 1 196 
0 0 0 0 0 0 1 197 
0 0 0 0 0 0 4 198 210 222 234 
0 0 0 0 0 0 2 199 200 
5 1 0 0 0 0 5 206 204 203 202 201 
2 4 0 0 0 0 4 205 203 202 201 
5 4 0 0 0 0 2 208 207 
1 4 0 0 0 0 2 208 207 
9 4 0 0 0 0 1 207 
5 6 0 0 0 0 1 208 
6 6 0 0 0 0 1 207 
5 10 0 0 0 0 1 207 
2 8 0 0 0 0 1 209 
3 3 0 0 0 0 1 209 
0 0 0 0 0 0 1 246 
0 0 0 0 0 0 5 211 212 213 214 215 
3 0 0 0 0 1 4 220 219 218 216 
7 0 0 0 0 3 3 219 218 216 
5 0 0 0 0 5 3 220 218 217 
1 0 0 0 0 4 2 219 216 
5 0 0 0 0 6 2 218 216 
1 0 0 0 0 8 1 217 
6 0 0 0 0 5 1 221 
7 0 0 0 0 8 1 221 
3 0 0 0 0 6 1 221 
4 0 0 0 0 4 1 221 
0 0 0 0 0 0 1 246 
0 0 0 0 0 0 6 223 224 225 228 231 232 
7 0 0 0 1 0 2 230 227 
10 0 0 0 6 0 2 230 229 
2 0 0 0 5 0 1 226 
5 0 0 0 5 0 1 229 
10 0 0 0 3 0 1 229 
6 0 0 0 3 0 1 229 
3 0 0 0 7 0 1 233 
2 0 0 0 5 0 1 233 
8 0 0 0 7 0 1 233 
3 0 0 0 8 0 1 233 
0 0 0 0 0 0 1 246 
0 0 0 0 0 0 4 235 236 238 240 
2 0 0 1 0 0 3 242 239 237 
2 0 0 8 0 0 2 242 239 
4 0 0 4 0 0 2 244 241 
10 0 0 7 0 0 2 242 241 
2 0 0 6 0 0 1 243 
1 0 0 4 0 0 1 241 
2 0 0 4 0 0 1 245 
7 0 0 6 0 0 1 245 
6 0 0 5 0 0 1 245 
2 0 0 5 0 0 1 245 
0 0 0 0 0 0 1 246 
0 0 0 0 0 0 0 
